Debug: configOverride contents: IsWeighted_ObjFunc add_break_callback add_generate_reports add_threshold_distance_rssv bw_multiplier capacities cover_mode coverages cust_max_id distance_matrix loc_max_id max_ite_subprob_rssv method method_post_opt method_rssv_fp method_rssv_sp output p seed service size_subproblems_rssv subarea threads time time_cplex time_subprob_rssv weights 
Loading instance...
Scanning input data...
Distance matrix dimensions: 3039 x 3039 = 9235521
Elapsed time: 0 ms

Loading weights...
Skipped line: customer weight coord_x coord_y
Loaded 3038 weights
Loaded 3038 coordinates
Total customer demand: 153240.00
Elapsed time: 6 ms

Loading capacities...
Skipped line: location capacity coord_x coord_y
Loaded 3038 capacities
Loaded 3038 coordinates
Elapsed time: 5 ms

Loading distance matrix...
Computing euclidian distances...
bw multiplier: 0.50
Loaded 9232482 distances
dists stdev: 862.93
bandwidth h: 18.49
locations: 3038
customers: 3038
p: 1000
Elapsed time: 157 ms

[INFO] Instance loaded
loc_max_id: 3038
loc_cnt: 3038
service: p3038_1000
cust_max_id: 3038
cust_cnt: 3038
unweighted obj function
p: 1000
total_demand: 153240.00


Default row names c1, c2 ... being created.
-------------------------------------------------
-------------------------------------------------
    EXACT_CPMP_BIN
-------------------------------------------------
Version identifier: 22.1.1.0 | 2022-11-28 | 9160aff4d
CPXPARAM_TimeLimit                               3600
Tried aggregator 1 time.
Presolve has eliminated 0 rows and 0 columns...
Reduced MIP has 6077 rows, 9232482 columns, and 18464964 nonzeros.
Reduced MIP has 9232482 binaries, 0 generals, 0 SOSs, and 0 indicators.
Presolve time = 38.65 sec. (16445.21 ticks)
Tried aggregator 1 time.
Presolve has eliminated 0 rows and 0 columns...
Detecting symmetries...
Reduced MIP has 6077 rows, 9232482 columns, and 18464964 nonzeros.
Reduced MIP has 9232482 binaries, 0 generals, 0 SOSs, and 0 indicators.
Presolve time = 59.03 sec. (18569.99 ticks)
Probing time = 22.98 sec. (2047.13 ticks)
Clique table members: 5939551.
MIP emphasis: balance optimality and feasibility.
MIP search method: dynamic search.
Parallel mode: deterministic, using up to 32 threads.
Root relaxation solution time = 68.88 sec. (15921.21 ticks)

        Nodes                                         Cuts/
   Node  Left     Objective  IInf  Best Integer    Best Bound    ItCnt     Gap

*     0+    0                      2787848.5373        0.0000           100.00%
*     0+    0                      2470174.9611        0.0000           100.00%
*     0+    0                      2286998.4813        0.0000           100.00%
*     0+    0                      2150294.0656        0.0000           100.00%
*     0+    0                      2023725.2499        0.0000           100.00%
*     0+    0                      1908859.3471        0.0000           100.00%
      0     0       -0.0000  2772  1908859.3471        0.0000     2821  100.00%
*     0+    0                      1844584.4263        0.0000           100.00%
*     0+    0                      1814294.5717        0.0000           100.00%
      0     0    41430.1191  3783  1814294.5717    Cuts: 1619     6063   97.72%
      0     0    64896.0842  4803  1814294.5717    Cuts: 1619     8823   96.42%
      0     0    71932.9445  4827  1814294.5717    Cuts: 1619    11079   96.04%
      0     0    74314.5007  4470  1814294.5717    Cuts: 1619    13183   95.90%
      0     0    80009.9447  4651  1814294.5717    Cuts: 1619    15731   95.59%
Detecting symmetries...
      0     0    82352.3408  4600  1814294.5717    Cuts: 1619    17809   95.46%
      0     0    83459.7927  4706  1814294.5717    Cuts: 1619    19806   95.40%
      0     0    84224.5755  4413  1814294.5717    Cuts: 1619    21761   95.36%
      0     0    84625.4724  4342  1814294.5717    Cuts: 1293    23305   95.34%
*     0+    0                       437301.8230    84625.4724            80.65%
*     0+    0                       436996.8089    84625.4724            80.63%
      0     0    84816.2640  3769   436996.8089     Cuts: 972    24527   80.59%
*     0+    0                       120959.0586    84816.2640            29.88%
*     0+    0                        99124.8502    84816.2640            14.43%
      0     0  -1.00000e+75     0    99124.8502    84816.2640    24527   14.43%
      0     0    84961.4680  4120    99124.8502     Cuts: 748    25626   14.29%
      0     0    85066.7013  3775    99124.8502     Cuts: 632    26518   14.18%
      0     0    85138.9682  3552    99124.8502     Cuts: 417    27150   14.11%
      0     0    85189.6723  3888    99124.8502     Cuts: 334    27755   14.06%
      0     0    85219.9156  3747    99124.8502     Cuts: 303    28142   14.03%
      0     0    85234.8855  3910    99124.8502     Cuts: 159    28496   14.01%
      0     0    85249.1638  3802    99124.8502     Cuts: 180    28759   14.00%
      0     0    85258.9548  3714    99124.8502     Cuts: 141    28980   13.99%
      0     0    85266.2619  3821    99124.8502      Cuts: 99    29190   13.98%
      0     0    85273.5812  3679    99124.8502      Cuts: 79    29399   13.97%
      0     0    85279.5410  3849    99124.8502      Cuts: 89    29572   13.97%
Heuristic still looking.
Heuristic still looking.
*     0+    0                        90586.7685    85279.5410             5.86%
Detecting symmetries...
slurmstepd: error: Detected 1 oom-kill event(s) in step 902188.0 cgroup. Some of your processes may have been killed by the cgroup out-of-memory handler.
srun: error: arges: task 0: Out Of Memory
slurmstepd: error: Detected 1 oom-kill event(s) in step 902188.batch cgroup. Some of your processes may have been killed by the cgroup out-of-memory handler.
